data;

set A := 288075 967451 869993 128602 335985 465298 627221 402018 591943 762558 635985 362845 178130 126339 849366 437035 134480 97232 889654 489368 196665 403998 169376 922394 416960 119343 359770 616146 460561 564690 796486 183175 966930 598299 644383 951472 657956 723949 147899 490280 929440 747313 349768 136953 169499 912734 903184 958932 125924 344497 820407 355925 328259 975347 914681 952193 405050 514552 697391 283976 431813 159580 740232 241989 667611 874693 270161 330491 367404 763686 724208 740055 930082 473656 259362 384754 15586 621120 555202 163662 857674 570701 13955 630486 993074 609464 6578 978784;
param T := 22000000;

end;
